certificates/rado_a12_c4_N125.cnf
c Rad2 upper bound instance: x1 + 12*x2 - x3 = 4, interval [1,125]
p cnf 125 1260
1 9 0
-1 -9 0
1 2 21 0
-1 -2 -21 0
1 3 33 0
-1 -3 -33 0
1 4 45 0
-1 -4 -45 0
1 5 57 0
-1 -5 -57 0
1 6 69 0
-1 -6 -69 0
1 7 81 0
-1 -7 -81 0
1 8 93 0
-1 -8 -93 0
1 9 105 0
-1 -9 -105 0
1 10 117 0
-1 -10 -117 0
1 2 10 0
-1 -2 -10 0
2 22 0
-2 -22 0
2 3 34 0
-2 -3 -34 0
2 4 46 0
-2 -4 -46 0
2 5 58 0
-2 -5 -58 0
2 6 70 0
-2 -6 -70 0
2 7 82 0
-2 -7 -82 0
2 8 94 0
-2 -8 -94 0
2 9 106 0
-2 -9 -106 0
2 10 118 0
-2 -10 -118 0
1 3 11 0
-1 -3 -11 0
2 3 23 0
-2 -3 -23 0
3 35 0
-3 -35 0
3 4 47 0
-3 -4 -47 0
3 5 59 0
-3 -5 -59 0
3 6 71 0
-3 -6 -71 0
3 7 83 0
-3 -7 -83 0
3 8 95 0
-3 -8 -95 0
3 9 107 0
-3 -9 -107 0
3 10 119 0
-3 -10 -119 0
1 4 12 0
-1 -4 -12 0
2 4 24 0
-2 -4 -24 0
3 4 36 0
-3 -4 -36 0
4 48 0
-4 -48 0
4 5 60 0
-4 -5 -60 0
4 6 72 0
-4 -6 -72 0
4 7 84 0
-4 -7 -84 0
4 8 96 0
-4 -8 -96 0
4 9 108 0
-4 -9 -108 0
4 10 120 0
-4 -10 -120 0
1 5 13 0
-1 -5 -13 0
2 5 25 0
-2 -5 -25 0
3 5 37 0
-3 -5 -37 0
4 5 49 0
-4 -5 -49 0
5 61 0
-5 -61 0
5 6 73 0
-5 -6 -73 0
5 7 85 0
-5 -7 -85 0
5 8 97 0
-5 -8 -97 0
5 9 109 0
-5 -9 -109 0
5 10 121 0
-5 -10 -121 0
1 6 14 0
-1 -6 -14 0
2 6 26 0
-2 -6 -26 0
3 6 38 0
-3 -6 -38 0
4 6 50 0
-4 -6 -50 0
5 6 62 0
-5 -6 -62 0
6 74 0
-6 -74 0
6 7 86 0
-6 -7 -86 0
6 8 98 0
-6 -8 -98 0
6 9 110 0
-6 -9 -110 0
6 10 122 0
-6 -10 -122 0
1 7 15 0
-1 -7 -15 0
2 7 27 0
-2 -7 -27 0
3 7 39 0
-3 -7 -39 0
4 7 51 0
-4 -7 -51 0
5 7 63 0
-5 -7 -63 0
6 7 75 0
-6 -7 -75 0
7 87 0
-7 -87 0
7 8 99 0
-7 -8 -99 0
7 9 111 0
-7 -9 -111 0
7 10 123 0
-7 -10 -123 0
1 8 16 0
-1 -8 -16 0
2 8 28 0
-2 -8 -28 0
3 8 40 0
-3 -8 -40 0
4 8 52 0
-4 -8 -52 0
5 8 64 0
-5 -8 -64 0
6 8 76 0
-6 -8 -76 0
7 8 88 0
-7 -8 -88 0
8 100 0
-8 -100 0
8 9 112 0
-8 -9 -112 0
8 10 124 0
-8 -10 -124 0
1 9 17 0
-1 -9 -17 0
2 9 29 0
-2 -9 -29 0
3 9 41 0
-3 -9 -41 0
4 9 53 0
-4 -9 -53 0
5 9 65 0
-5 -9 -65 0
6 9 77 0
-6 -9 -77 0
7 9 89 0
-7 -9 -89 0
8 9 101 0
-8 -9 -101 0
9 113 0
-9 -113 0
9 10 125 0
-9 -10 -125 0
1 10 18 0
-1 -10 -18 0
2 10 30 0
-2 -10 -30 0
3 10 42 0
-3 -10 -42 0
4 10 54 0
-4 -10 -54 0
5 10 66 0
-5 -10 -66 0
6 10 78 0
-6 -10 -78 0
7 10 90 0
-7 -10 -90 0
8 10 102 0
-8 -10 -102 0
9 10 114 0
-9 -10 -114 0
1 11 19 0
-1 -11 -19 0
2 11 31 0
-2 -11 -31 0
3 11 43 0
-3 -11 -43 0
4 11 55 0
-4 -11 -55 0
5 11 67 0
-5 -11 -67 0
6 11 79 0
-6 -11 -79 0
7 11 91 0
-7 -11 -91 0
8 11 103 0
-8 -11 -103 0
9 11 115 0
-9 -11 -115 0
1 12 20 0
-1 -12 -20 0
2 12 32 0
-2 -12 -32 0
3 12 44 0
-3 -12 -44 0
4 12 56 0
-4 -12 -56 0
5 12 68 0
-5 -12 -68 0
6 12 80 0
-6 -12 -80 0
7 12 92 0
-7 -12 -92 0
8 12 104 0
-8 -12 -104 0
9 12 116 0
-9 -12 -116 0
1 13 21 0
-1 -13 -21 0
2 13 33 0
-2 -13 -33 0
3 13 45 0
-3 -13 -45 0
4 13 57 0
-4 -13 -57 0
5 13 69 0
-5 -13 -69 0
6 13 81 0
-6 -13 -81 0
7 13 93 0
-7 -13 -93 0
8 13 105 0
-8 -13 -105 0
9 13 117 0
-9 -13 -117 0
1 14 22 0
-1 -14 -22 0
2 14 34 0
-2 -14 -34 0
3 14 46 0
-3 -14 -46 0
4 14 58 0
-4 -14 -58 0
5 14 70 0
-5 -14 -70 0
6 14 82 0
-6 -14 -82 0
7 14 94 0
-7 -14 -94 0
8 14 106 0
-8 -14 -106 0
9 14 118 0
-9 -14 -118 0
1 15 23 0
-1 -15 -23 0
2 15 35 0
-2 -15 -35 0
3 15 47 0
-3 -15 -47 0
4 15 59 0
-4 -15 -59 0
5 15 71 0
-5 -15 -71 0
6 15 83 0
-6 -15 -83 0
7 15 95 0
-7 -15 -95 0
8 15 107 0
-8 -15 -107 0
9 15 119 0
-9 -15 -119 0
1 16 24 0
-1 -16 -24 0
2 16 36 0
-2 -16 -36 0
3 16 48 0
-3 -16 -48 0
4 16 60 0
-4 -16 -60 0
5 16 72 0
-5 -16 -72 0
6 16 84 0
-6 -16 -84 0
7 16 96 0
-7 -16 -96 0
8 16 108 0
-8 -16 -108 0
9 16 120 0
-9 -16 -120 0
1 17 25 0
-1 -17 -25 0
2 17 37 0
-2 -17 -37 0
3 17 49 0
-3 -17 -49 0
4 17 61 0
-4 -17 -61 0
5 17 73 0
-5 -17 -73 0
6 17 85 0
-6 -17 -85 0
7 17 97 0
-7 -17 -97 0
8 17 109 0
-8 -17 -109 0
9 17 121 0
-9 -17 -121 0
1 18 26 0
-1 -18 -26 0
2 18 38 0
-2 -18 -38 0
3 18 50 0
-3 -18 -50 0
4 18 62 0
-4 -18 -62 0
5 18 74 0
-5 -18 -74 0
6 18 86 0
-6 -18 -86 0
7 18 98 0
-7 -18 -98 0
8 18 110 0
-8 -18 -110 0
9 18 122 0
-9 -18 -122 0
1 19 27 0
-1 -19 -27 0
2 19 39 0
-2 -19 -39 0
3 19 51 0
-3 -19 -51 0
4 19 63 0
-4 -19 -63 0
5 19 75 0
-5 -19 -75 0
6 19 87 0
-6 -19 -87 0
7 19 99 0
-7 -19 -99 0
8 19 111 0
-8 -19 -111 0
9 19 123 0
-9 -19 -123 0
1 20 28 0
-1 -20 -28 0
2 20 40 0
-2 -20 -40 0
3 20 52 0
-3 -20 -52 0
4 20 64 0
-4 -20 -64 0
5 20 76 0
-5 -20 -76 0
6 20 88 0
-6 -20 -88 0
7 20 100 0
-7 -20 -100 0
8 20 112 0
-8 -20 -112 0
9 20 124 0
-9 -20 -124 0
1 21 29 0
-1 -21 -29 0
2 21 41 0
-2 -21 -41 0
3 21 53 0
-3 -21 -53 0
4 21 65 0
-4 -21 -65 0
5 21 77 0
-5 -21 -77 0
6 21 89 0
-6 -21 -89 0
7 21 101 0
-7 -21 -101 0
8 21 113 0
-8 -21 -113 0
9 21 125 0
-9 -21 -125 0
1 22 30 0
-1 -22 -30 0
2 22 42 0
-2 -22 -42 0
3 22 54 0
-3 -22 -54 0
4 22 66 0
-4 -22 -66 0
5 22 78 0
-5 -22 -78 0
6 22 90 0
-6 -22 -90 0
7 22 102 0
-7 -22 -102 0
8 22 114 0
-8 -22 -114 0
1 23 31 0
-1 -23 -31 0
2 23 43 0
-2 -23 -43 0
3 23 55 0
-3 -23 -55 0
4 23 67 0
-4 -23 -67 0
5 23 79 0
-5 -23 -79 0
6 23 91 0
-6 -23 -91 0
7 23 103 0
-7 -23 -103 0
8 23 115 0
-8 -23 -115 0
1 24 32 0
-1 -24 -32 0
2 24 44 0
-2 -24 -44 0
3 24 56 0
-3 -24 -56 0
4 24 68 0
-4 -24 -68 0
5 24 80 0
-5 -24 -80 0
6 24 92 0
-6 -24 -92 0
7 24 104 0
-7 -24 -104 0
8 24 116 0
-8 -24 -116 0
1 25 33 0
-1 -25 -33 0
2 25 45 0
-2 -25 -45 0
3 25 57 0
-3 -25 -57 0
4 25 69 0
-4 -25 -69 0
5 25 81 0
-5 -25 -81 0
6 25 93 0
-6 -25 -93 0
7 25 105 0
-7 -25 -105 0
8 25 117 0
-8 -25 -117 0
1 26 34 0
-1 -26 -34 0
2 26 46 0
-2 -26 -46 0
3 26 58 0
-3 -26 -58 0
4 26 70 0
-4 -26 -70 0
5 26 82 0
-5 -26 -82 0
6 26 94 0
-6 -26 -94 0
7 26 106 0
-7 -26 -106 0
8 26 118 0
-8 -26 -118 0
1 27 35 0
-1 -27 -35 0
2 27 47 0
-2 -27 -47 0
3 27 59 0
-3 -27 -59 0
4 27 71 0
-4 -27 -71 0
5 27 83 0
-5 -27 -83 0
6 27 95 0
-6 -27 -95 0
7 27 107 0
-7 -27 -107 0
8 27 119 0
-8 -27 -119 0
1 28 36 0
-1 -28 -36 0
2 28 48 0
-2 -28 -48 0
3 28 60 0
-3 -28 -60 0
4 28 72 0
-4 -28 -72 0
5 28 84 0
-5 -28 -84 0
6 28 96 0
-6 -28 -96 0
7 28 108 0
-7 -28 -108 0
8 28 120 0
-8 -28 -120 0
1 29 37 0
-1 -29 -37 0
2 29 49 0
-2 -29 -49 0
3 29 61 0
-3 -29 -61 0
4 29 73 0
-4 -29 -73 0
5 29 85 0
-5 -29 -85 0
6 29 97 0
-6 -29 -97 0
7 29 109 0
-7 -29 -109 0
8 29 121 0
-8 -29 -121 0
1 30 38 0
-1 -30 -38 0
2 30 50 0
-2 -30 -50 0
3 30 62 0
-3 -30 -62 0
4 30 74 0
-4 -30 -74 0
5 30 86 0
-5 -30 -86 0
6 30 98 0
-6 -30 -98 0
7 30 110 0
-7 -30 -110 0
8 30 122 0
-8 -30 -122 0
1 31 39 0
-1 -31 -39 0
2 31 51 0
-2 -31 -51 0
3 31 63 0
-3 -31 -63 0
4 31 75 0
-4 -31 -75 0
5 31 87 0
-5 -31 -87 0
6 31 99 0
-6 -31 -99 0
7 31 111 0
-7 -31 -111 0
8 31 123 0
-8 -31 -123 0
1 32 40 0
-1 -32 -40 0
2 32 52 0
-2 -32 -52 0
3 32 64 0
-3 -32 -64 0
4 32 76 0
-4 -32 -76 0
5 32 88 0
-5 -32 -88 0
6 32 100 0
-6 -32 -100 0
7 32 112 0
-7 -32 -112 0
8 32 124 0
-8 -32 -124 0
1 33 41 0
-1 -33 -41 0
2 33 53 0
-2 -33 -53 0
3 33 65 0
-3 -33 -65 0
4 33 77 0
-4 -33 -77 0
5 33 89 0
-5 -33 -89 0
6 33 101 0
-6 -33 -101 0
7 33 113 0
-7 -33 -113 0
8 33 125 0
-8 -33 -125 0
1 34 42 0
-1 -34 -42 0
2 34 54 0
-2 -34 -54 0
3 34 66 0
-3 -34 -66 0
4 34 78 0
-4 -34 -78 0
5 34 90 0
-5 -34 -90 0
6 34 102 0
-6 -34 -102 0
7 34 114 0
-7 -34 -114 0
1 35 43 0
-1 -35 -43 0
2 35 55 0
-2 -35 -55 0
3 35 67 0
-3 -35 -67 0
4 35 79 0
-4 -35 -79 0
5 35 91 0
-5 -35 -91 0
6 35 103 0
-6 -35 -103 0
7 35 115 0
-7 -35 -115 0
1 36 44 0
-1 -36 -44 0
2 36 56 0
-2 -36 -56 0
3 36 68 0
-3 -36 -68 0
4 36 80 0
-4 -36 -80 0
5 36 92 0
-5 -36 -92 0
6 36 104 0
-6 -36 -104 0
7 36 116 0
-7 -36 -116 0
1 37 45 0
-1 -37 -45 0
2 37 57 0
-2 -37 -57 0
3 37 69 0
-3 -37 -69 0
4 37 81 0
-4 -37 -81 0
5 37 93 0
-5 -37 -93 0
6 37 105 0
-6 -37 -105 0
7 37 117 0
-7 -37 -117 0
1 38 46 0
-1 -38 -46 0
2 38 58 0
-2 -38 -58 0
3 38 70 0
-3 -38 -70 0
4 38 82 0
-4 -38 -82 0
5 38 94 0
-5 -38 -94 0
6 38 106 0
-6 -38 -106 0
7 38 118 0
-7 -38 -118 0
1 39 47 0
-1 -39 -47 0
2 39 59 0
-2 -39 -59 0
3 39 71 0
-3 -39 -71 0
4 39 83 0
-4 -39 -83 0
5 39 95 0
-5 -39 -95 0
6 39 107 0
-6 -39 -107 0
7 39 119 0
-7 -39 -119 0
1 40 48 0
-1 -40 -48 0
2 40 60 0
-2 -40 -60 0
3 40 72 0
-3 -40 -72 0
4 40 84 0
-4 -40 -84 0
5 40 96 0
-5 -40 -96 0
6 40 108 0
-6 -40 -108 0
7 40 120 0
-7 -40 -120 0
1 41 49 0
-1 -41 -49 0
2 41 61 0
-2 -41 -61 0
3 41 73 0
-3 -41 -73 0
4 41 85 0
-4 -41 -85 0
5 41 97 0
-5 -41 -97 0
6 41 109 0
-6 -41 -109 0
7 41 121 0
-7 -41 -121 0
1 42 50 0
-1 -42 -50 0
2 42 62 0
-2 -42 -62 0
3 42 74 0
-3 -42 -74 0
4 42 86 0
-4 -42 -86 0
5 42 98 0
-5 -42 -98 0
6 42 110 0
-6 -42 -110 0
7 42 122 0
-7 -42 -122 0
1 43 51 0
-1 -43 -51 0
2 43 63 0
-2 -43 -63 0
3 43 75 0
-3 -43 -75 0
4 43 87 0
-4 -43 -87 0
5 43 99 0
-5 -43 -99 0
6 43 111 0
-6 -43 -111 0
7 43 123 0
-7 -43 -123 0
1 44 52 0
-1 -44 -52 0
2 44 64 0
-2 -44 -64 0
3 44 76 0
-3 -44 -76 0
4 44 88 0
-4 -44 -88 0
5 44 100 0
-5 -44 -100 0
6 44 112 0
-6 -44 -112 0
7 44 124 0
-7 -44 -124 0
1 45 53 0
-1 -45 -53 0
2 45 65 0
-2 -45 -65 0
3 45 77 0
-3 -45 -77 0
4 45 89 0
-4 -45 -89 0
5 45 101 0
-5 -45 -101 0
6 45 113 0
-6 -45 -113 0
7 45 125 0
-7 -45 -125 0
1 46 54 0
-1 -46 -54 0
2 46 66 0
-2 -46 -66 0
3 46 78 0
-3 -46 -78 0
4 46 90 0
-4 -46 -90 0
5 46 102 0
-5 -46 -102 0
6 46 114 0
-6 -46 -114 0
1 47 55 0
-1 -47 -55 0
2 47 67 0
-2 -47 -67 0
3 47 79 0
-3 -47 -79 0
4 47 91 0
-4 -47 -91 0
5 47 103 0
-5 -47 -103 0
6 47 115 0
-6 -47 -115 0
1 48 56 0
-1 -48 -56 0
2 48 68 0
-2 -48 -68 0
3 48 80 0
-3 -48 -80 0
4 48 92 0
-4 -48 -92 0
5 48 104 0
-5 -48 -104 0
6 48 116 0
-6 -48 -116 0
1 49 57 0
-1 -49 -57 0
2 49 69 0
-2 -49 -69 0
3 49 81 0
-3 -49 -81 0
4 49 93 0
-4 -49 -93 0
5 49 105 0
-5 -49 -105 0
6 49 117 0
-6 -49 -117 0
1 50 58 0
-1 -50 -58 0
2 50 70 0
-2 -50 -70 0
3 50 82 0
-3 -50 -82 0
4 50 94 0
-4 -50 -94 0
5 50 106 0
-5 -50 -106 0
6 50 118 0
-6 -50 -118 0
1 51 59 0
-1 -51 -59 0
2 51 71 0
-2 -51 -71 0
3 51 83 0
-3 -51 -83 0
4 51 95 0
-4 -51 -95 0
5 51 107 0
-5 -51 -107 0
6 51 119 0
-6 -51 -119 0
1 52 60 0
-1 -52 -60 0
2 52 72 0
-2 -52 -72 0
3 52 84 0
-3 -52 -84 0
4 52 96 0
-4 -52 -96 0
5 52 108 0
-5 -52 -108 0
6 52 120 0
-6 -52 -120 0
1 53 61 0
-1 -53 -61 0
2 53 73 0
-2 -53 -73 0
3 53 85 0
-3 -53 -85 0
4 53 97 0
-4 -53 -97 0
5 53 109 0
-5 -53 -109 0
6 53 121 0
-6 -53 -121 0
1 54 62 0
-1 -54 -62 0
2 54 74 0
-2 -54 -74 0
3 54 86 0
-3 -54 -86 0
4 54 98 0
-4 -54 -98 0
5 54 110 0
-5 -54 -110 0
6 54 122 0
-6 -54 -122 0
1 55 63 0
-1 -55 -63 0
2 55 75 0
-2 -55 -75 0
3 55 87 0
-3 -55 -87 0
4 55 99 0
-4 -55 -99 0
5 55 111 0
-5 -55 -111 0
6 55 123 0
-6 -55 -123 0
1 56 64 0
-1 -56 -64 0
2 56 76 0
-2 -56 -76 0
3 56 88 0
-3 -56 -88 0
4 56 100 0
-4 -56 -100 0
5 56 112 0
-5 -56 -112 0
6 56 124 0
-6 -56 -124 0
1 57 65 0
-1 -57 -65 0
2 57 77 0
-2 -57 -77 0
3 57 89 0
-3 -57 -89 0
4 57 101 0
-4 -57 -101 0
5 57 113 0
-5 -57 -113 0
6 57 125 0
-6 -57 -125 0
1 58 66 0
-1 -58 -66 0
2 58 78 0
-2 -58 -78 0
3 58 90 0
-3 -58 -90 0
4 58 102 0
-4 -58 -102 0
5 58 114 0
-5 -58 -114 0
1 59 67 0
-1 -59 -67 0
2 59 79 0
-2 -59 -79 0
3 59 91 0
-3 -59 -91 0
4 59 103 0
-4 -59 -103 0
5 59 115 0
-5 -59 -115 0
1 60 68 0
-1 -60 -68 0
2 60 80 0
-2 -60 -80 0
3 60 92 0
-3 -60 -92 0
4 60 104 0
-4 -60 -104 0
5 60 116 0
-5 -60 -116 0
1 61 69 0
-1 -61 -69 0
2 61 81 0
-2 -61 -81 0
3 61 93 0
-3 -61 -93 0
4 61 105 0
-4 -61 -105 0
5 61 117 0
-5 -61 -117 0
1 62 70 0
-1 -62 -70 0
2 62 82 0
-2 -62 -82 0
3 62 94 0
-3 -62 -94 0
4 62 106 0
-4 -62 -106 0
5 62 118 0
-5 -62 -118 0
1 63 71 0
-1 -63 -71 0
2 63 83 0
-2 -63 -83 0
3 63 95 0
-3 -63 -95 0
4 63 107 0
-4 -63 -107 0
5 63 119 0
-5 -63 -119 0
1 64 72 0
-1 -64 -72 0
2 64 84 0
-2 -64 -84 0
3 64 96 0
-3 -64 -96 0
4 64 108 0
-4 -64 -108 0
5 64 120 0
-5 -64 -120 0
1 65 73 0
-1 -65 -73 0
2 65 85 0
-2 -65 -85 0
3 65 97 0
-3 -65 -97 0
4 65 109 0
-4 -65 -109 0
5 65 121 0
-5 -65 -121 0
1 66 74 0
-1 -66 -74 0
2 66 86 0
-2 -66 -86 0
3 66 98 0
-3 -66 -98 0
4 66 110 0
-4 -66 -110 0
5 66 122 0
-5 -66 -122 0
1 67 75 0
-1 -67 -75 0
2 67 87 0
-2 -67 -87 0
3 67 99 0
-3 -67 -99 0
4 67 111 0
-4 -67 -111 0
5 67 123 0
-5 -67 -123 0
1 68 76 0
-1 -68 -76 0
2 68 88 0
-2 -68 -88 0
3 68 100 0
-3 -68 -100 0
4 68 112 0
-4 -68 -112 0
5 68 124 0
-5 -68 -124 0
1 69 77 0
-1 -69 -77 0
2 69 89 0
-2 -69 -89 0
3 69 101 0
-3 -69 -101 0
4 69 113 0
-4 -69 -113 0
5 69 125 0
-5 -69 -125 0
1 70 78 0
-1 -70 -78 0
2 70 90 0
-2 -70 -90 0
3 70 102 0
-3 -70 -102 0
4 70 114 0
-4 -70 -114 0
1 71 79 0
-1 -71 -79 0
2 71 91 0
-2 -71 -91 0
3 71 103 0
-3 -71 -103 0
4 71 115 0
-4 -71 -115 0
1 72 80 0
-1 -72 -80 0
2 72 92 0
-2 -72 -92 0
3 72 104 0
-3 -72 -104 0
4 72 116 0
-4 -72 -116 0
1 73 81 0
-1 -73 -81 0
2 73 93 0
-2 -73 -93 0
3 73 105 0
-3 -73 -105 0
4 73 117 0
-4 -73 -117 0
1 74 82 0
-1 -74 -82 0
2 74 94 0
-2 -74 -94 0
3 74 106 0
-3 -74 -106 0
4 74 118 0
-4 -74 -118 0
1 75 83 0
-1 -75 -83 0
2 75 95 0
-2 -75 -95 0
3 75 107 0
-3 -75 -107 0
4 75 119 0
-4 -75 -119 0
1 76 84 0
-1 -76 -84 0
2 76 96 0
-2 -76 -96 0
3 76 108 0
-3 -76 -108 0
4 76 120 0
-4 -76 -120 0
1 77 85 0
-1 -77 -85 0
2 77 97 0
-2 -77 -97 0
3 77 109 0
-3 -77 -109 0
4 77 121 0
-4 -77 -121 0
1 78 86 0
-1 -78 -86 0
2 78 98 0
-2 -78 -98 0
3 78 110 0
-3 -78 -110 0
4 78 122 0
-4 -78 -122 0
1 79 87 0
-1 -79 -87 0
2 79 99 0
-2 -79 -99 0
3 79 111 0
-3 -79 -111 0
4 79 123 0
-4 -79 -123 0
1 80 88 0
-1 -80 -88 0
2 80 100 0
-2 -80 -100 0
3 80 112 0
-3 -80 -112 0
4 80 124 0
-4 -80 -124 0
1 81 89 0
-1 -81 -89 0
2 81 101 0
-2 -81 -101 0
3 81 113 0
-3 -81 -113 0
4 81 125 0
-4 -81 -125 0
1 82 90 0
-1 -82 -90 0
2 82 102 0
-2 -82 -102 0
3 82 114 0
-3 -82 -114 0
1 83 91 0
-1 -83 -91 0
2 83 103 0
-2 -83 -103 0
3 83 115 0
-3 -83 -115 0
1 84 92 0
-1 -84 -92 0
2 84 104 0
-2 -84 -104 0
3 84 116 0
-3 -84 -116 0
1 85 93 0
-1 -85 -93 0
2 85 105 0
-2 -85 -105 0
3 85 117 0
-3 -85 -117 0
1 86 94 0
-1 -86 -94 0
2 86 106 0
-2 -86 -106 0
3 86 118 0
-3 -86 -118 0
1 87 95 0
-1 -87 -95 0
2 87 107 0
-2 -87 -107 0
3 87 119 0
-3 -87 -119 0
1 88 96 0
-1 -88 -96 0
2 88 108 0
-2 -88 -108 0
3 88 120 0
-3 -88 -120 0
1 89 97 0
-1 -89 -97 0
2 89 109 0
-2 -89 -109 0
3 89 121 0
-3 -89 -121 0
1 90 98 0
-1 -90 -98 0
2 90 110 0
-2 -90 -110 0
3 90 122 0
-3 -90 -122 0
1 91 99 0
-1 -91 -99 0
2 91 111 0
-2 -91 -111 0
3 91 123 0
-3 -91 -123 0
1 92 100 0
-1 -92 -100 0
2 92 112 0
-2 -92 -112 0
3 92 124 0
-3 -92 -124 0
1 93 101 0
-1 -93 -101 0
2 93 113 0
-2 -93 -113 0
3 93 125 0
-3 -93 -125 0
1 94 102 0
-1 -94 -102 0
2 94 114 0
-2 -94 -114 0
1 95 103 0
-1 -95 -103 0
2 95 115 0
-2 -95 -115 0
1 96 104 0
-1 -96 -104 0
2 96 116 0
-2 -96 -116 0
1 97 105 0
-1 -97 -105 0
2 97 117 0
-2 -97 -117 0
1 98 106 0
-1 -98 -106 0
2 98 118 0
-2 -98 -118 0
1 99 107 0
-1 -99 -107 0
2 99 119 0
-2 -99 -119 0
1 100 108 0
-1 -100 -108 0
2 100 120 0
-2 -100 -120 0
1 101 109 0
-1 -101 -109 0
2 101 121 0
-2 -101 -121 0
1 102 110 0
-1 -102 -110 0
2 102 122 0
-2 -102 -122 0
1 103 111 0
-1 -103 -111 0
2 103 123 0
-2 -103 -123 0
1 104 112 0
-1 -104 -112 0
2 104 124 0
-2 -104 -124 0
1 105 113 0
-1 -105 -113 0
2 105 125 0
-2 -105 -125 0
1 106 114 0
-1 -106 -114 0
1 107 115 0
-1 -107 -115 0
1 108 116 0
-1 -108 -116 0
1 109 117 0
-1 -109 -117 0
1 110 118 0
-1 -110 -118 0
1 111 119 0
-1 -111 -119 0
1 112 120 0
-1 -112 -120 0
1 113 121 0
-1 -113 -121 0
1 114 122 0
-1 -114 -122 0
1 115 123 0
-1 -115 -123 0
1 116 124 0
-1 -116 -124 0
1 117 125 0
-1 -117 -125 0
