certificates/rado_a12_c4_N125.drat
1 -122 -125 0
-122 -123 -125 0
-10 122 -125 0
9 10 -125 0
122 -125 0
d -10 122 -125 0
-122 -125 0
d 1 -122 -125 0
-125 0
9 -10 0
-10 0
9 0
-1 0
-113 0
117 0
18 0
2 0
121 0
105 0
-13 0
-122 0
-22 0
-106 0
-29 0
-85 0
-97 0
-101 0
-38 0
-17 0
21 0
5 0
6 0
114 0
30 0
14 0
98 0
37 0
93 0
77 0
89 0
109 0
46 0
25 0
7 0
-41 0
0
